import psi4nnmp2

molecule {
0 1
C1 0.31106000 -0.63811000 -0.95102000
C2 -0.98255000 -0.26916000 -0.58286000
C3 0.33273000 0.54943000 0.91623000
N4 1.13337000 -0.10659000 0.01967000
H5 2.16338000 -0.17513000 0.05574000
H6 0.69903000 -1.21439000 -1.78763000
H7 -1.91452000 -0.50034000 -1.09544000
H8 0.73307000 1.06108000 1.78872000
N9 -0.96308000 0.47251000 0.58393000
--
C10 5.96323000 -0.49174000 0.26634000
C11 4.69650000 -0.99415000 0.54199000
C12 4.38798000 0.86055000 -0.53873000
N13 5.74017000 0.68577000 -0.42015000
H14 6.45262000 1.31352000 -0.77478000
H15 6.96183000 -0.85636000 0.49095000
H16 4.43851000 -1.90897000 1.07045000
H17 3.94076000 1.71536000 -1.04012000
N18 3.72595000 -0.14770000 0.03809000
symmetry c1
}


set {
  basis cc-pvdz
  df_basis_scf cc-pvdz-jkfit
  guess sad
  scf_type df
  mp2_type df
  memory 7gb
  freeze_core true
}

energy('nnmp2')

