molecule mol {
0 1
He 0 0 0
--
He 2 0 0
}


import snsmp2
energy('sns-mp2')
