import psi4nnmp2

molecule {
0 1
C 1.89747500 -0.13719000 0.00325700
F 1.17895400 0.90412000 -0.55121800
H 1.33877600 -1.08316700 -0.09468600
H 2.08301700 0.05259100 1.07384800
H 2.86860600 -0.24760800 -0.50793900
--
0 1
O 1.64079600 2.59005000 1.73323200
H 1.30005900 3.50257800 1.87268800
H 1.30290400 2.33203700 0.84581200

units angstrom
no_reorient
symmetry c1
}


set {
  memory 7gb
}


energy('nnmp2')

# Referemce values from "dimer conformation 0" in
# /d/en/donchev-4/QMDonchev2014/multimer_ecmp2/\{CF\}_O/ec/0/\{CF\}_O_0_intene.out 
# /d/en/donchev-4/QMDonchev2014/multimer_ecmp2/\{CF\}_O/ec/0/\{CF\}_O_0_espx.out

compare_values(get_variable('DF-HF/desavqz-psi-rev1 Density Matrix Overlap'),             0.02957596,  6, "ovlhf")
compare_values(get_variable('DF-HF/desavqz-psi-rev1 Electrostatic Interaction Energy'),  -0.00863467,  6, "eshf")
compare_values(get_variable('DF-HF/desavqz-psi-rev1 Heitler-London Energy'),             -0.00143114,  6, "hl")
compare_values(get_variable('DF-MP2/desavqz-psi-rev1 Density Matrix Overlap'),            0.03455406,  6, "ovlmp")
compare_values(get_variable('DF-MP2/desavqz-psi-rev1 Electrostatic Interaction Energy'), -0.00841727,  6, "esmp")
compare_values(get_variable('DF-HF/desavqz-psi-rev1 CP Interaction Energy'),             -0.00348609,  5, "inthf")
compare_values(get_variable('DF-MP2/desavqz-psi-rev1 CP Interaction Energy'),            -0.00597490,  5, "intmp")
